x low 8.00
p edge 360 3452
n 4 1.00
n 6 1.00
n 3 1.00
n 7 1.00
n 8 1.00
n 5 1.00
n 9 1.00
n 11 1.00
n 12 1.00
n 14 1.00
n 45 1.00
n 46 1.00
n 47 1.00
n 48 1.00
n 49 1.00
n 50 1.00
n 10 1.00
n 13 1.00
n 15 1.00
n 17 1.00
n 18 1.00
n 20 1.00
n 51 1.00
n 52 1.00
n 53 1.00
n 54 1.00
n 55 1.00
n 56 1.00
n 16 1.00
n 19 1.00
n 21 1.00
n 23 1.00
n 24 1.00
n 26 1.00
n 57 1.00
n 58 1.00
n 59 1.00
n 60 1.00
n 61 1.00
n 62 1.00
n 22 1.00
n 25 1.00
n 27 1.00
n 29 1.00
n 30 1.00
n 32 1.00
n 63 1.00
n 64 1.00
n 65 1.00
n 66 1.00
n 67 1.00
n 68 1.00
n 28 1.00
n 31 1.00
n 33 1.00
n 35 1.00
n 36 1.00
n 38 1.00
n 69 1.00
n 70 1.00
n 71 1.00
n 72 1.00
n 73 1.00
n 74 1.00
n 34 1.00
n 37 1.00
n 75 1.00
n 76 1.00
n 77 1.00
n 78 1.00
n 79 1.00
n 80 1.00
n 87 1.00
n 88 1.00
n 89 1.00
n 90 1.00
n 91 1.00
n 92 1.00
n 93 1.00
n 94 1.00
n 95 1.00
n 96 1.00
n 97 1.00
n 98 1.00
n 99 1.00
n 100 1.00
n 101 1.00
n 102 1.00
n 103 1.00
n 104 1.00
n 105 1.00
n 106 1.00
n 107 1.00
n 108 1.00
n 109 1.00
n 110 1.00
n 111 1.00
n 112 1.00
n 113 1.00
n 114 1.00
n 115 1.00
n 116 1.00
n 117 1.00
n 118 1.00
n 119 1.00
n 121 1.00
n 122 1.00
n 120 1.00
n 129 1.00
n 130 1.00
n 131 1.00
n 132 1.00
n 133 1.00
n 134 1.00
n 135 1.00
n 136 1.00
n 137 1.00
n 139 1.00
n 140 1.00
n 138 1.00
n 141 1.00
n 142 1.00
n 143 1.00
n 144 1.00
n 145 1.00
n 146 1.00
n 147 1.00
n 148 1.00
n 149 1.00
n 150 1.00
n 151 1.00
n 152 1.00
n 153 1.00
n 154 1.00
n 155 1.00
n 156 1.00
n 157 1.00
n 158 1.00
n 159 1.00
n 160 1.00
n 161 1.00
n 162 1.00
n 163 1.00
n 164 1.00
n 171 1.00
n 172 1.00
n 173 1.00
n 175 1.00
n 176 1.00
n 174 1.00
n 177 1.00
n 178 1.00
n 179 1.00
n 181 1.00
n 182 1.00
n 180 1.00
n 183 1.00
n 184 1.00
n 185 1.00
n 187 1.00
n 188 1.00
n 186 1.00
n 189 1.00
n 190 1.00
n 191 1.00
n 193 1.00
n 194 1.00
n 192 1.00
n 195 1.00
n 196 1.00
n 197 1.00
n 199 1.00
n 200 1.00
n 198 1.00
n 201 1.00
n 202 1.00
n 203 1.00
n 205 1.00
n 206 1.00
n 204 1.00
n 213 1.00
n 214 1.00
n 215 1.00
n 217 1.00
n 218 1.00
n 216 1.00
n 219 1.00
n 220 1.00
n 221 1.00
n 223 1.00
n 224 1.00
n 222 1.00
n 225 1.00
n 226 1.00
n 227 1.00
n 229 1.00
n 230 1.00
n 228 1.00
n 231 1.00
n 232 1.00
n 233 1.00
n 235 1.00
n 236 1.00
n 234 1.00
n 237 1.00
n 238 1.00
n 239 1.00
n 241 1.00
n 242 1.00
n 240 1.00
n 243 1.00
n 244 1.00
n 245 1.00
n 247 1.00
n 248 1.00
n 246 1.00
n 255 1.00
n 256 1.00
n 257 1.00
n 259 1.00
n 260 1.00
n 258 1.00
n 261 1.00
n 262 1.00
n 263 1.00
n 265 1.00
n 266 1.00
n 264 1.00
n 267 1.00
n 268 1.00
n 269 1.00
n 271 1.00
n 272 1.00
n 270 1.00
n 273 1.00
n 274 1.00
n 275 1.00
n 277 1.00
n 278 1.00
n 276 1.00
n 279 1.00
n 280 1.00
n 281 1.00
n 283 1.00
n 284 1.00
n 282 1.00
n 285 1.00
n 286 1.00
n 287 1.00
n 289 1.00
n 290 1.00
n 288 1.00
n 297 1.00
n 298 1.00
n 299 1.00
n 301 1.00
n 302 1.00
n 300 1.00
n 303 1.00
n 304 1.00
n 305 1.00
n 307 1.00
n 308 1.00
n 306 1.00
n 309 1.00
n 310 1.00
n 311 1.00
n 313 1.00
n 314 1.00
n 312 1.00
n 315 1.00
n 316 1.00
n 317 1.00
n 319 1.00
n 320 1.00
n 318 1.00
n 321 1.00
n 322 1.00
n 323 1.00
n 325 1.00
n 326 1.00
n 324 1.00
n 327 1.00
n 328 1.00
n 329 1.00
n 331 1.00
n 332 1.00
n 330 1.00
n 339 1.00
n 340 1.00
n 341 1.00
n 342 1.00
n 343 1.00
n 344 1.00
n 345 1.00
n 346 1.00
n 347 1.00
n 349 1.00
n 350 1.00
n 348 1.00
n 351 1.00
n 352 1.00
n 353 1.00
n 354 1.00
n 355 1.00
n 356 1.00
n 357 1.00
n 358 1.00
n 359 1.00
n 360 1.00
n 361 1.00
n 362 1.00
n 363 1.00
n 364 1.00
n 365 1.00
n 366 1.00
n 367 1.00
n 368 1.00
n 369 1.00
n 370 1.00
n 371 1.00
n 372 1.00
n 373 1.00
n 374 1.00
n 381 1.00
n 382 1.00
n 383 1.00
n 384 1.00
n 385 1.00
n 386 1.00
n 387 1.00
n 388 1.00
n 389 1.00
n 390 1.00
n 391 1.00
n 392 1.00
n 393 1.00
n 394 1.00
n 395 1.00
n 396 1.00
n 397 1.00
n 398 1.00
n 399 1.00
n 400 1.00
n 401 1.00
n 402 1.00
n 403 1.00
n 404 1.00
n 405 1.00
n 406 1.00
n 407 1.00
n 408 1.00
n 409 1.00
n 410 1.00
n 411 1.00
n 412 1.00
n 413 1.00
n 414 1.00
n 415 1.00
n 416 1.00
e 3 4
e 3 5
e 3 6
e 3 7
e 3 8
e 3 9
e 3 11
e 3 12
e 3 14
e 3 45
e 3 46
e 3 47
e 3 48
e 3 49
e 3 50
e 4 5
e 4 6
e 4 7
e 4 8
e 4 10
e 4 45
e 4 46
e 4 47
e 4 48
e 4 49
e 4 50
e 5 6
e 5 7
e 5 8
e 5 9
e 5 11
e 5 12
e 5 14
e 5 45
e 5 46
e 5 47
e 5 48
e 5 49
e 5 50
e 6 7
e 6 8
e 6 9
e 6 10
e 6 11
e 6 12
e 6 14
e 6 45
e 6 46
e 6 47
e 6 48
e 6 49
e 6 50
e 7 8
e 7 9
e 7 11
e 7 12
e 7 13
e 7 14
e 7 45
e 7 46
e 7 47
e 7 48
e 7 49
e 7 50
e 8 9
e 8 11
e 8 12
e 8 14
e 8 45
e 8 46
e 8 47
e 8 48
e 8 49
e 8 50
e 9 10
e 9 11
e 9 12
e 9 13
e 9 14
e 9 15
e 9 17
e 9 18
e 9 20
e 9 51
e 9 52
e 9 53
e 9 54
e 9 55
e 9 56
e 10 11
e 10 12
e 10 13
e 10 14
e 10 16
e 10 51
e 10 52
e 10 53
e 10 54
e 10 55
e 10 56
e 11 12
e 11 13
e 11 14
e 11 15
e 11 17
e 11 18
e 11 20
e 11 51
e 11 52
e 11 53
e 11 54
e 11 55
e 11 56
e 12 13
e 12 14
e 12 15
e 12 17
e 12 18
e 12 20
e 12 51
e 12 52
e 12 53
e 12 54
e 12 55
e 12 56
e 13 14
e 13 19
e 13 51
e 13 52
e 13 53
e 13 54
e 13 55
e 13 56
e 14 15
e 14 17
e 14 18
e 14 20
e 14 51
e 14 52
e 14 53
e 14 54
e 14 55
e 14 56
e 15 16
e 15 17
e 15 18
e 15 19
e 15 20
e 15 21
e 15 23
e 15 24
e 15 26
e 15 57
e 15 58
e 15 59
e 15 60
e 15 61
e 15 62
e 16 17
e 16 18
e 16 19
e 16 20
e 16 22
e 16 57
e 16 58
e 16 59
e 16 60
e 16 61
e 16 62
e 17 18
e 17 19
e 17 20
e 17 21
e 17 23
e 17 24
e 17 26
e 17 57
e 17 58
e 17 59
e 17 60
e 17 61
e 17 62
e 18 19
e 18 20
e 18 21
e 18 23
e 18 24
e 18 26
e 18 57
e 18 58
e 18 59
e 18 60
e 18 61
e 18 62
e 19 20
e 19 25
e 19 57
e 19 58
e 19 59
e 19 60
e 19 61
e 19 62
e 20 21
e 20 23
e 20 24
e 20 26
e 20 57
e 20 58
e 20 59
e 20 60
e 20 61
e 20 62
e 21 22
e 21 23
e 21 24
e 21 25
e 21 26
e 21 27
e 21 29
e 21 30
e 21 32
e 21 63
e 21 64
e 21 65
e 21 66
e 21 67
e 21 68
e 22 23
e 22 24
e 22 25
e 22 26
e 22 28
e 22 63
e 22 64
e 22 65
e 22 66
e 22 67
e 22 68
e 23 24
e 23 25
e 23 26
e 23 27
e 23 29
e 23 30
e 23 32
e 23 63
e 23 64
e 23 65
e 23 66
e 23 67
e 23 68
e 24 25
e 24 26
e 24 27
e 24 29
e 24 30
e 24 32
e 24 63
e 24 64
e 24 65
e 24 66
e 24 67
e 24 68
e 25 26
e 25 31
e 25 63
e 25 64
e 25 65
e 25 66
e 25 67
e 25 68
e 26 27
e 26 29
e 26 30
e 26 32
e 26 63
e 26 64
e 26 65
e 26 66
e 26 67
e 26 68
e 27 28
e 27 29
e 27 30
e 27 31
e 27 32
e 27 33
e 27 35
e 27 36
e 27 38
e 27 69
e 27 70
e 27 71
e 27 72
e 27 73
e 27 74
e 28 29
e 28 30
e 28 31
e 28 32
e 28 34
e 28 69
e 28 70
e 28 71
e 28 72
e 28 73
e 28 74
e 29 30
e 29 31
e 29 32
e 29 33
e 29 35
e 29 36
e 29 38
e 29 69
e 29 70
e 29 71
e 29 72
e 29 73
e 29 74
e 30 31
e 30 32
e 30 33
e 30 34
e 30 35
e 30 36
e 30 38
e 30 69
e 30 70
e 30 71
e 30 72
e 30 73
e 30 74
e 31 32
e 31 33
e 31 35
e 31 36
e 31 37
e 31 38
e 31 69
e 31 70
e 31 71
e 31 72
e 31 73
e 31 74
e 32 33
e 32 35
e 32 36
e 32 38
e 32 69
e 32 70
e 32 71
e 32 72
e 32 73
e 32 74
e 33 34
e 33 35
e 33 36
e 33 37
e 33 38
e 33 75
e 33 76
e 33 77
e 33 78
e 33 79
e 33 80
e 34 35
e 34 36
e 34 37
e 34 38
e 34 75
e 34 76
e 34 77
e 34 78
e 34 79
e 34 80
e 35 36
e 35 37
e 35 38
e 35 75
e 35 76
e 35 77
e 35 78
e 35 79
e 35 80
e 36 37
e 36 38
e 36 75
e 36 76
e 36 77
e 36 78
e 36 79
e 36 80
e 37 38
e 37 75
e 37 76
e 37 77
e 37 78
e 37 79
e 37 80
e 38 75
e 38 76
e 38 77
e 38 78
e 38 79
e 38 80
e 45 46
e 45 47
e 45 48
e 45 49
e 45 50
e 45 51
e 45 53
e 45 54
e 45 56
e 45 87
e 45 88
e 45 89
e 45 90
e 45 91
e 45 92
e 46 47
e 46 48
e 46 49
e 46 50
e 46 52
e 46 87
e 46 88
e 46 89
e 46 90
e 46 91
e 46 92
e 47 48
e 47 49
e 47 50
e 47 51
e 47 53
e 47 54
e 47 56
e 47 87
e 47 88
e 47 89
e 47 90
e 47 91
e 47 92
e 48 49
e 48 50
e 48 51
e 48 52
e 48 53
e 48 54
e 48 56
e 48 87
e 48 88
e 48 89
e 48 90
e 48 91
e 48 92
e 49 50
e 49 51
e 49 53
e 49 54
e 49 55
e 49 56
e 49 87
e 49 88
e 49 89
e 49 90
e 49 91
e 49 92
e 50 51
e 50 52
e 50 53
e 50 54
e 50 56
e 50 87
e 50 88
e 50 89
e 50 90
e 50 91
e 50 92
e 51 52
e 51 53
e 51 54
e 51 55
e 51 56
e 51 57
e 51 59
e 51 60
e 51 62
e 51 93
e 51 94
e 51 95
e 51 96
e 51 97
e 51 98
e 52 53
e 52 54
e 52 55
e 52 56
e 52 58
e 52 93
e 52 94
e 52 95
e 52 96
e 52 97
e 52 98
e 53 54
e 53 55
e 53 56
e 53 57
e 53 59
e 53 60
e 53 62
e 53 93
e 53 94
e 53 95
e 53 96
e 53 97
e 53 98
e 54 55
e 54 56
e 54 57
e 54 59
e 54 60
e 54 62
e 54 93
e 54 94
e 54 95
e 54 96
e 54 97
e 54 98
e 55 56
e 55 57
e 55 59
e 55 60
e 55 61
e 55 62
e 55 93
e 55 94
e 55 95
e 55 96
e 55 97
e 55 98
e 56 57
e 56 58
e 56 59
e 56 60
e 56 62
e 56 93
e 56 94
e 56 95
e 56 96
e 56 97
e 56 98
e 57 58
e 57 59
e 57 60
e 57 61
e 57 62
e 57 63
e 57 65
e 57 66
e 57 68
e 57 99
e 57 100
e 57 101
e 57 102
e 57 103
e 57 104
e 58 59
e 58 60
e 58 61
e 58 62
e 58 64
e 58 99
e 58 100
e 58 101
e 58 102
e 58 103
e 58 104
e 59 60
e 59 61
e 59 62
e 59 63
e 59 65
e 59 66
e 59 68
e 59 99
e 59 100
e 59 101
e 59 102
e 59 103
e 59 104
e 60 61
e 60 62
e 60 63
e 60 64
e 60 65
e 60 66
e 60 68
e 60 99
e 60 100
e 60 101
e 60 102
e 60 103
e 60 104
e 61 62
e 61 63
e 61 65
e 61 66
e 61 67
e 61 68
e 61 99
e 61 100
e 61 101
e 61 102
e 61 103
e 61 104
e 62 63
e 62 64
e 62 65
e 62 66
e 62 68
e 62 99
e 62 100
e 62 101
e 62 102
e 62 103
e 62 104
e 63 64
e 63 65
e 63 66
e 63 67
e 63 68
e 63 69
e 63 71
e 63 72
e 63 74
e 63 105
e 63 106
e 63 107
e 63 108
e 63 109
e 63 110
e 64 65
e 64 66
e 64 67
e 64 68
e 64 70
e 64 105
e 64 106
e 64 107
e 64 108
e 64 109
e 64 110
e 65 66
e 65 67
e 65 68
e 65 69
e 65 71
e 65 72
e 65 74
e 65 105
e 65 106
e 65 107
e 65 108
e 65 109
e 65 110
e 66 67
e 66 68
e 66 69
e 66 70
e 66 71
e 66 72
e 66 74
e 66 105
e 66 106
e 66 107
e 66 108
e 66 109
e 66 110
e 67 68
e 67 69
e 67 71
e 67 72
e 67 73
e 67 74
e 67 105
e 67 106
e 67 107
e 67 108
e 67 109
e 67 110
e 68 69
e 68 70
e 68 71
e 68 72
e 68 74
e 68 105
e 68 106
e 68 107
e 68 108
e 68 109
e 68 110
e 69 70
e 69 71
e 69 72
e 69 73
e 69 74
e 69 75
e 69 77
e 69 78
e 69 80
e 69 111
e 69 112
e 69 113
e 69 114
e 69 115
e 69 116
e 70 71
e 70 72
e 70 73
e 70 74
e 70 76
e 70 111
e 70 112
e 70 113
e 70 114
e 70 115
e 70 116
e 71 72
e 71 73
e 71 74
e 71 75
e 71 77
e 71 78
e 71 80
e 71 111
e 71 112
e 71 113
e 71 114
e 71 115
e 71 116
e 72 73
e 72 74
e 72 75
e 72 76
e 72 77
e 72 78
e 72 80
e 72 111
e 72 112
e 72 113
e 72 114
e 72 115
e 72 116
e 73 74
e 73 75
e 73 77
e 73 78
e 73 79
e 73 80
e 73 111
e 73 112
e 73 113
e 73 114
e 73 115
e 73 116
e 74 75
e 74 76
e 74 77
e 74 78
e 74 80
e 74 111
e 74 112
e 74 113
e 74 114
e 74 115
e 74 116
e 75 76
e 75 77
e 75 78
e 75 79
e 75 80
e 75 117
e 76 77
e 76 78
e 76 79
e 76 80
e 76 118
e 76 119
e 76 121
e 76 122
e 77 78
e 77 79
e 77 80
e 77 118
e 77 119
e 77 121
e 77 122
e 78 79
e 78 80
e 78 120
e 79 80
e 79 118
e 79 119
e 79 121
e 79 122
e 80 118
e 80 119
e 80 121
e 80 122
e 87 88
e 87 89
e 87 90
e 87 91
e 87 92
e 87 93
e 87 95
e 87 96
e 87 98
e 87 129
e 87 130
e 87 131
e 87 132
e 87 133
e 87 134
e 88 89
e 88 90
e 88 91
e 88 92
e 88 94
e 88 129
e 88 130
e 88 131
e 88 132
e 88 133
e 88 134
e 89 90
e 89 91
e 89 92
e 89 93
e 89 95
e 89 96
e 89 98
e 89 129
e 89 130
e 89 131
e 89 132
e 89 133
e 89 134
e 90 91
e 90 92
e 90 93
e 90 94
e 90 95
e 90 96
e 90 98
e 90 129
e 90 130
e 90 131
e 90 132
e 90 133
e 90 134
e 91 92
e 91 93
e 91 95
e 91 96
e 91 97
e 91 98
e 91 129
e 91 130
e 91 131
e 91 132
e 91 133
e 91 134
e 92 93
e 92 94
e 92 95
e 92 96
e 92 98
e 92 129
e 92 130
e 92 131
e 92 132
e 92 133
e 92 134
e 93 94
e 93 95
e 93 96
e 93 97
e 93 98
e 93 99
e 93 101
e 93 102
e 93 104
e 93 135
e 94 95
e 94 96
e 94 97
e 94 98
e 94 100
e 94 136
e 94 137
e 94 139
e 94 140
e 95 96
e 95 97
e 95 98
e 95 99
e 95 101
e 95 102
e 95 104
e 95 136
e 95 137
e 95 139
e 95 140
e 96 97
e 96 98
e 96 99
e 96 101
e 96 102
e 96 104
e 96 138
e 97 98
e 97 99
e 97 101
e 97 102
e 97 103
e 97 104
e 97 136
e 97 137
e 97 139
e 97 140
e 98 99
e 98 100
e 98 101
e 98 102
e 98 104
e 98 136
e 98 137
e 98 139
e 98 140
e 99 100
e 99 101
e 99 102
e 99 103
e 99 104
e 99 105
e 99 107
e 99 108
e 99 110
e 99 141
e 99 142
e 99 143
e 99 144
e 99 145
e 99 146
e 100 101
e 100 102
e 100 103
e 100 104
e 100 106
e 100 141
e 100 142
e 100 143
e 100 144
e 100 145
e 100 146
e 101 102
e 101 103
e 101 104
e 101 105
e 101 107
e 101 108
e 101 110
e 101 141
e 101 142
e 101 143
e 101 144
e 101 145
e 101 146
e 102 103
e 102 104
e 102 105
e 102 106
e 102 107
e 102 108
e 102 110
e 102 141
e 102 142
e 102 143
e 102 144
e 102 145
e 102 146
e 103 104
e 103 105
e 103 107
e 103 108
e 103 109
e 103 110
e 103 141
e 103 142
e 103 143
e 103 144
e 103 145
e 103 146
e 104 105
e 104 106
e 104 107
e 104 108
e 104 110
e 104 141
e 104 142
e 104 143
e 104 144
e 104 145
e 104 146
e 105 106
e 105 107
e 105 108
e 105 109
e 105 110
e 105 111
e 105 113
e 105 114
e 105 116
e 105 147
e 105 148
e 105 149
e 105 150
e 105 151
e 105 152
e 106 107
e 106 108
e 106 109
e 106 110
e 106 112
e 106 147
e 106 148
e 106 149
e 106 150
e 106 151
e 106 152
e 107 108
e 107 109
e 107 110
e 107 111
e 107 113
e 107 114
e 107 116
e 107 147
e 107 148
e 107 149
e 107 150
e 107 151
e 107 152
e 108 109
e 108 110
e 108 111
e 108 112
e 108 113
e 108 114
e 108 116
e 108 147
e 108 148
e 108 149
e 108 150
e 108 151
e 108 152
e 109 110
e 109 111
e 109 113
e 109 114
e 109 115
e 109 116
e 109 147
e 109 148
e 109 149
e 109 150
e 109 151
e 109 152
e 110 111
e 110 112
e 110 113
e 110 114
e 110 116
e 110 147
e 110 148
e 110 149
e 110 150
e 110 151
e 110 152
e 111 112
e 111 113
e 111 114
e 111 115
e 111 116
e 111 117
e 111 119
e 111 120
e 111 122
e 111 153
e 111 154
e 111 155
e 111 156
e 111 157
e 111 158
e 112 113
e 112 114
e 112 115
e 112 116
e 112 118
e 112 153
e 112 154
e 112 155
e 112 156
e 112 157
e 112 158
e 113 114
e 113 115
e 113 116
e 113 117
e 113 119
e 113 120
e 113 122
e 113 153
e 113 154
e 113 155
e 113 156
e 113 157
e 113 158
e 114 115
e 114 116
e 114 117
e 114 118
e 114 119
e 114 120
e 114 122
e 114 153
e 114 154
e 114 155
e 114 156
e 114 157
e 114 158
e 115 116
e 115 117
e 115 119
e 115 120
e 115 121
e 115 122
e 115 153
e 115 154
e 115 155
e 115 156
e 115 157
e 115 158
e 116 117
e 116 118
e 116 119
e 116 120
e 116 122
e 116 153
e 116 154
e 116 155
e 116 156
e 116 157
e 116 158
e 117 118
e 117 119
e 117 120
e 117 121
e 117 122
e 117 159
e 117 160
e 117 161
e 117 162
e 117 163
e 117 164
e 118 119
e 118 120
e 118 121
e 118 122
e 118 159
e 118 160
e 118 161
e 118 162
e 118 163
e 118 164
e 119 120
e 119 121
e 119 122
e 119 159
e 119 160
e 119 161
e 119 162
e 119 163
e 119 164
e 120 121
e 120 122
e 120 159
e 120 160
e 120 161
e 120 162
e 120 163
e 120 164
e 121 122
e 121 159
e 121 160
e 121 161
e 121 162
e 121 163
e 121 164
e 122 159
e 122 160
e 122 161
e 122 162
e 122 163
e 122 164
e 129 130
e 129 131
e 129 132
e 129 133
e 129 134
e 129 135
e 129 137
e 129 138
e 129 140
e 129 171
e 130 131
e 130 132
e 130 133
e 130 134
e 130 136
e 130 172
e 130 173
e 130 175
e 130 176
e 131 132
e 131 133
e 131 134
e 131 135
e 131 137
e 131 138
e 131 140
e 131 172
e 131 173
e 131 175
e 131 176
e 132 133
e 132 134
e 132 135
e 132 136
e 132 137
e 132 138
e 132 140
e 132 174
e 133 134
e 133 135
e 133 137
e 133 138
e 133 139
e 133 140
e 133 172
e 133 173
e 133 175
e 133 176
e 134 135
e 134 136
e 134 137
e 134 138
e 134 140
e 134 172
e 134 173
e 134 175
e 134 176
e 135 137
e 135 138
e 135 139
e 135 140
e 135 141
e 135 143
e 135 144
e 135 146
e 135 177
e 136 137
e 136 138
e 136 139
e 136 140
e 136 142
e 136 178
e 136 179
e 136 181
e 136 182
e 137 138
e 137 139
e 137 140
e 137 141
e 137 143
e 137 144
e 137 146
e 137 178
e 137 179
e 137 181
e 137 182
e 138 139
e 138 140
e 138 141
e 138 142
e 138 143
e 138 144
e 138 146
e 138 180
e 139 140
e 139 141
e 139 143
e 139 144
e 139 145
e 139 146
e 139 178
e 139 179
e 139 181
e 139 182
e 140 141
e 140 142
e 140 143
e 140 144
e 140 146
e 140 178
e 140 179
e 140 181
e 140 182
e 141 142
e 141 143
e 141 144
e 141 145
e 141 146
e 141 147
e 141 149
e 141 150
e 141 152
e 141 183
e 142 143
e 142 144
e 142 145
e 142 146
e 142 148
e 142 184
e 142 185
e 142 187
e 142 188
e 143 144
e 143 145
e 143 146
e 143 147
e 143 149
e 143 150
e 143 152
e 143 184
e 143 185
e 143 187
e 143 188
e 144 145
e 144 146
e 144 147
e 144 149
e 144 150
e 144 152
e 144 186
e 145 146
e 145 151
e 145 184
e 145 185
e 145 187
e 145 188
e 146 147
e 146 149
e 146 150
e 146 152
e 146 184
e 146 185
e 146 187
e 146 188
e 147 148
e 147 149
e 147 150
e 147 151
e 147 153
e 147 155
e 147 156
e 147 158
e 147 189
e 148 149
e 148 150
e 148 151
e 148 152
e 148 154
e 148 190
e 148 191
e 148 193
e 148 194
e 149 150
e 149 151
e 149 152
e 149 153
e 149 155
e 149 156
e 149 158
e 149 190
e 149 191
e 149 193
e 149 194
e 150 151
e 150 152
e 150 153
e 150 155
e 150 156
e 150 158
e 150 192
e 151 152
e 151 157
e 151 190
e 151 191
e 151 193
e 151 194
e 152 153
e 152 155
e 152 156
e 152 158
e 152 190
e 152 191
e 152 193
e 152 194
e 153 154
e 153 155
e 153 156
e 153 157
e 153 158
e 153 159
e 153 161
e 153 162
e 153 164
e 153 195
e 154 155
e 154 156
e 154 157
e 154 158
e 154 160
e 154 196
e 154 197
e 154 199
e 154 200
e 155 156
e 155 157
e 155 158
e 155 159
e 155 161
e 155 162
e 155 164
e 155 196
e 155 197
e 155 199
e 155 200
e 156 157
e 156 158
e 156 159
e 156 160
e 156 161
e 156 162
e 156 164
e 156 198
e 157 158
e 157 159
e 157 161
e 157 162
e 157 163
e 157 164
e 157 196
e 157 197
e 157 199
e 157 200
e 158 159
e 158 160
e 158 161
e 158 162
e 158 164
e 158 196
e 158 197
e 158 199
e 158 200
e 159 160
e 159 161
e 159 162
e 159 163
e 159 164
e 159 201
e 160 161
e 160 162
e 160 163
e 160 164
e 160 202
e 160 203
e 160 205
e 160 206
e 161 162
e 161 163
e 161 164
e 161 202
e 161 203
e 161 205
e 161 206
e 162 163
e 162 164
e 162 204
e 163 164
e 163 202
e 163 203
e 163 205
e 163 206
e 164 202
e 164 203
e 164 205
e 164 206
e 171 172
e 171 173
e 171 174
e 171 175
e 171 176
e 171 177
e 171 179
e 171 180
e 171 182
e 171 213
e 172 173
e 172 174
e 172 175
e 172 176
e 172 178
e 172 214
e 172 215
e 172 217
e 172 218
e 173 174
e 173 175
e 173 176
e 173 177
e 173 179
e 173 180
e 173 182
e 173 214
e 173 215
e 173 217
e 173 218
e 174 175
e 174 176
e 174 177
e 174 178
e 174 179
e 174 180
e 174 182
e 174 216
e 175 176
e 175 177
e 175 179
e 175 180
e 175 181
e 175 182
e 175 214
e 175 215
e 175 217
e 175 218
e 176 177
e 176 178
e 176 179
e 176 180
e 176 182
e 176 214
e 176 215
e 176 217
e 176 218
e 177 179
e 177 180
e 177 181
e 177 182
e 177 183
e 177 185
e 177 186
e 177 188
e 177 219
e 178 179
e 178 180
e 178 181
e 178 182
e 178 184
e 178 220
e 178 221
e 178 223
e 178 224
e 179 180
e 179 181
e 179 182
e 179 183
e 179 185
e 179 186
e 179 188
e 179 220
e 179 221
e 179 223
e 179 224
e 180 181
e 180 182
e 180 183
e 180 184
e 180 185
e 180 186
e 180 188
e 180 222
e 181 182
e 181 183
e 181 185
e 181 186
e 181 187
e 181 188
e 181 220
e 181 221
e 181 223
e 181 224
e 182 183
e 182 184
e 182 185
e 182 186
e 182 188
e 182 220
e 182 221
e 182 223
e 182 224
e 183 185
e 183 186
e 183 187
e 183 188
e 183 189
e 183 191
e 183 192
e 183 194
e 183 225
e 184 185
e 184 187
e 184 188
e 184 190
e 184 226
e 184 227
e 184 229
e 184 230
e 185 186
e 185 187
e 185 188
e 185 189
e 185 191
e 185 192
e 185 194
e 185 226
e 185 227
e 185 229
e 185 230
e 186 187
e 186 188
e 186 189
e 186 191
e 186 192
e 186 194
e 186 228
e 187 188
e 187 189
e 187 191
e 187 192
e 187 193
e 187 194
e 187 226
e 187 227
e 187 229
e 187 230
e 188 189
e 188 190
e 188 191
e 188 192
e 188 194
e 188 226
e 188 227
e 188 229
e 188 230
e 189 191
e 189 192
e 189 193
e 189 195
e 189 197
e 189 198
e 189 200
e 189 231
e 190 191
e 190 193
e 190 194
e 190 196
e 190 232
e 190 233
e 190 235
e 190 236
e 191 192
e 191 193
e 191 194
e 191 195
e 191 197
e 191 198
e 191 200
e 191 232
e 191 233
e 191 235
e 191 236
e 192 193
e 192 194
e 192 195
e 192 197
e 192 198
e 192 200
e 192 234
e 193 194
e 193 195
e 193 197
e 193 198
e 193 199
e 193 200
e 193 232
e 193 233
e 193 235
e 193 236
e 194 195
e 194 196
e 194 197
e 194 198
e 194 200
e 194 232
e 194 233
e 194 235
e 194 236
e 195 197
e 195 198
e 195 199
e 195 200
e 195 201
e 195 203
e 195 204
e 195 206
e 195 237
e 196 197
e 196 198
e 196 199
e 196 200
e 196 202
e 196 238
e 196 239
e 196 241
e 196 242
e 197 198
e 197 199
e 197 200
e 197 201
e 197 203
e 197 204
e 197 206
e 197 238
e 197 239
e 197 241
e 197 242
e 198 199
e 198 200
e 198 201
e 198 202
e 198 203
e 198 204
e 198 206
e 198 240
e 199 200
e 199 201
e 199 203
e 199 204
e 199 205
e 199 206
e 199 238
e 199 239
e 199 241
e 199 242
e 200 201
e 200 202
e 200 203
e 200 204
e 200 206
e 200 238
e 200 239
e 200 241
e 200 242
e 201 203
e 201 204
e 201 205
e 201 206
e 201 243
e 202 203
e 202 204
e 202 205
e 202 206
e 202 244
e 202 245
e 202 247
e 202 248
e 203 204
e 203 205
e 203 206
e 203 244
e 203 245
e 203 247
e 203 248
e 204 206
e 204 246
e 205 206
e 205 244
e 205 245
e 205 247
e 205 248
e 206 244
e 206 245
e 206 247
e 206 248
e 213 214
e 213 215
e 213 216
e 213 217
e 213 218
e 213 219
e 213 221
e 213 222
e 213 224
e 213 255
e 214 215
e 214 216
e 214 217
e 214 218
e 214 220
e 214 256
e 214 257
e 214 259
e 214 260
e 215 216
e 215 217
e 215 218
e 215 219
e 215 221
e 215 222
e 215 224
e 215 256
e 215 257
e 215 259
e 215 260
e 216 217
e 216 218
e 216 219
e 216 220
e 216 221
e 216 222
e 216 224
e 216 258
e 217 218
e 217 219
e 217 221
e 217 222
e 217 223
e 217 224
e 217 256
e 217 257
e 217 259
e 217 260
e 218 219
e 218 220
e 218 221
e 218 222
e 218 224
e 218 256
e 218 257
e 218 259
e 218 260
e 219 221
e 219 222
e 219 223
e 219 224
e 219 225
e 219 227
e 219 228
e 219 230
e 219 261
e 220 221
e 220 222
e 220 223
e 220 224
e 220 226
e 220 262
e 220 263
e 220 265
e 220 266
e 221 222
e 221 223
e 221 224
e 221 225
e 221 227
e 221 228
e 221 230
e 221 262
e 221 263
e 221 265
e 221 266
e 222 223
e 222 224
e 222 225
e 222 226
e 222 227
e 222 228
e 222 230
e 222 264
e 223 224
e 223 225
e 223 227
e 223 228
e 223 229
e 223 230
e 223 262
e 223 263
e 223 265
e 223 266
e 224 225
e 224 227
e 224 228
e 224 230
e 224 262
e 224 263
e 224 265
e 224 266
e 225 227
e 225 228
e 225 230
e 225 231
e 225 233
e 225 234
e 225 236
e 225 267
e 226 227
e 226 229
e 226 230
e 226 232
e 226 268
e 226 269
e 226 271
e 226 272
e 227 228
e 227 229
e 227 230
e 227 231
e 227 233
e 227 234
e 227 236
e 227 268
e 227 269
e 227 271
e 227 272
e 228 230
e 228 231
e 228 233
e 228 234
e 228 236
e 228 270
e 229 230
e 229 235
e 229 268
e 229 269
e 229 271
e 229 272
e 230 231
e 230 233
e 230 234
e 230 236
e 230 268
e 230 269
e 230 271
e 230 272
e 231 233
e 231 234
e 231 237
e 231 239
e 231 240
e 231 242
e 231 273
e 232 233
e 232 235
e 232 236
e 232 238
e 232 274
e 232 275
e 232 277
e 232 278
e 233 234
e 233 235
e 233 236
e 233 237
e 233 239
e 233 240
e 233 242
e 233 274
e 233 275
e 233 277
e 233 278
e 234 236
e 234 237
e 234 239
e 234 240
e 234 242
e 234 276
e 235 236
e 235 241
e 235 274
e 235 275
e 235 277
e 235 278
e 236 237
e 236 239
e 236 240
e 236 242
e 236 274
e 236 275
e 236 277
e 236 278
e 237 239
e 237 240
e 237 241
e 237 242
e 237 243
e 237 245
e 237 246
e 237 248
e 237 279
e 238 239
e 238 240
e 238 241
e 238 242
e 238 244
e 238 280
e 238 281
e 238 283
e 238 284
e 239 240
e 239 241
e 239 242
e 239 243
e 239 245
e 239 246
e 239 248
e 239 280
e 239 281
e 239 283
e 239 284
e 240 241
e 240 242
e 240 243
e 240 244
e 240 245
e 240 246
e 240 248
e 240 282
e 241 242
e 241 243
e 241 245
e 241 246
e 241 247
e 241 248
e 241 280
e 241 281
e 241 283
e 241 284
e 242 243
e 242 244
e 242 245
e 242 246
e 242 248
e 242 280
e 242 281
e 242 283
e 242 284
e 243 245
e 243 246
e 243 247
e 243 248
e 243 285
e 244 245
e 244 246
e 244 247
e 244 248
e 244 286
e 244 287
e 244 289
e 244 290
e 245 246
e 245 247
e 245 248
e 245 286
e 245 287
e 245 289
e 245 290
e 246 248
e 246 288
e 247 248
e 247 286
e 247 287
e 247 289
e 247 290
e 248 286
e 248 287
e 248 289
e 248 290
e 255 256
e 255 257
e 255 258
e 255 259
e 255 260
e 255 261
e 255 263
e 255 264
e 255 266
e 255 297
e 256 257
e 256 258
e 256 259
e 256 260
e 256 262
e 256 298
e 256 299
e 256 301
e 256 302
e 257 258
e 257 259
e 257 260
e 257 261
e 257 263
e 257 264
e 257 266
e 257 298
e 257 299
e 257 301
e 257 302
e 258 259
e 258 260
e 258 261
e 258 262
e 258 263
e 258 264
e 258 266
e 258 300
e 259 260
e 259 261
e 259 263
e 259 264
e 259 265
e 259 266
e 259 298
e 259 299
e 259 301
e 259 302
e 260 261
e 260 262
e 260 263
e 260 264
e 260 266
e 260 298
e 260 299
e 260 301
e 260 302
e 261 263
e 261 264
e 261 265
e 261 266
e 261 267
e 261 269
e 261 270
e 261 272
e 261 303
e 262 263
e 262 264
e 262 265
e 262 266
e 262 268
e 262 304
e 262 305
e 262 307
e 262 308
e 263 264
e 263 265
e 263 266
e 263 267
e 263 269
e 263 270
e 263 272
e 263 304
e 263 305
e 263 307
e 263 308
e 264 265
e 264 266
e 264 267
e 264 268
e 264 269
e 264 270
e 264 272
e 264 306
e 265 266
e 265 267
e 265 269
e 265 270
e 265 271
e 265 272
e 265 304
e 265 305
e 265 307
e 265 308
e 266 267
e 266 268
e 266 269
e 266 270
e 266 272
e 266 304
e 266 305
e 266 307
e 266 308
e 267 269
e 267 270
e 267 272
e 267 273
e 267 275
e 267 276
e 267 278
e 267 309
e 268 269
e 268 271
e 268 272
e 268 274
e 268 310
e 268 311
e 268 313
e 268 314
e 269 270
e 269 271
e 269 272
e 269 273
e 269 275
e 269 276
e 269 278
e 269 310
e 269 311
e 269 313
e 269 314
e 270 272
e 270 273
e 270 275
e 270 276
e 270 278
e 270 312
e 271 272
e 271 277
e 271 310
e 271 311
e 271 313
e 271 314
e 272 273
e 272 275
e 272 276
e 272 278
e 272 310
e 272 311
e 272 313
e 272 314
e 273 275
e 273 276
e 273 279
e 273 281
e 273 282
e 273 284
e 273 315
e 274 275
e 274 277
e 274 278
e 274 280
e 274 316
e 274 317
e 274 319
e 274 320
e 275 276
e 275 277
e 275 278
e 275 279
e 275 281
e 275 282
e 275 284
e 275 316
e 275 317
e 275 319
e 275 320
e 276 278
e 276 279
e 276 281
e 276 282
e 276 284
e 276 318
e 277 278
e 277 283
e 277 316
e 277 317
e 277 319
e 277 320
e 278 279
e 278 281
e 278 282
e 278 284
e 278 316
e 278 317
e 278 319
e 278 320
e 279 281
e 279 282
e 279 283
e 279 284
e 279 285
e 279 287
e 279 288
e 279 290
e 279 321
e 280 281
e 280 282
e 280 283
e 280 284
e 280 286
e 280 322
e 280 323
e 280 325
e 280 326
e 281 282
e 281 283
e 281 284
e 281 285
e 281 287
e 281 288
e 281 290
e 281 322
e 281 323
e 281 325
e 281 326
e 282 283
e 282 284
e 282 285
e 282 286
e 282 287
e 282 288
e 282 290
e 282 324
e 283 284
e 283 285
e 283 287
e 283 288
e 283 289
e 283 290
e 283 322
e 283 323
e 283 325
e 283 326
e 284 285
e 284 286
e 284 287
e 284 288
e 284 290
e 284 322
e 284 323
e 284 325
e 284 326
e 285 287
e 285 288
e 285 289
e 285 290
e 285 327
e 286 287
e 286 288
e 286 289
e 286 290
e 286 328
e 286 329
e 286 331
e 286 332
e 287 288
e 287 289
e 287 290
e 287 328
e 287 329
e 287 331
e 287 332
e 288 290
e 288 330
e 289 290
e 289 328
e 289 329
e 289 331
e 289 332
e 290 328
e 290 329
e 290 331
e 290 332
e 297 298
e 297 299
e 297 300
e 297 301
e 297 302
e 297 303
e 297 305
e 297 306
e 297 308
e 297 339
e 297 340
e 297 341
e 297 342
e 297 343
e 297 344
e 298 299
e 298 300
e 298 301
e 298 302
e 298 304
e 298 339
e 298 340
e 298 341
e 298 342
e 298 343
e 298 344
e 299 300
e 299 301
e 299 302
e 299 303
e 299 305
e 299 306
e 299 308
e 299 339
e 299 340
e 299 341
e 299 342
e 299 343
e 299 344
e 300 301
e 300 302
e 300 303
e 300 304
e 300 305
e 300 306
e 300 308
e 300 339
e 300 340
e 300 341
e 300 342
e 300 343
e 300 344
e 301 302
e 301 303
e 301 305
e 301 306
e 301 307
e 301 308
e 301 339
e 301 340
e 301 341
e 301 342
e 301 343
e 301 344
e 302 303
e 302 304
e 302 305
e 302 306
e 302 308
e 302 339
e 302 340
e 302 341
e 302 342
e 302 343
e 302 344
e 303 305
e 303 306
e 303 307
e 303 308
e 303 309
e 303 311
e 303 312
e 303 314
e 303 345
e 304 305
e 304 306
e 304 307
e 304 308
e 304 310
e 304 346
e 304 347
e 304 349
e 304 350
e 305 306
e 305 307
e 305 308
e 305 309
e 305 311
e 305 312
e 305 314
e 305 346
e 305 347
e 305 349
e 305 350
e 306 307
e 306 308
e 306 309
e 306 310
e 306 311
e 306 312
e 306 314
e 306 348
e 307 308
e 307 309
e 307 311
e 307 312
e 307 313
e 307 314
e 307 346
e 307 347
e 307 349
e 307 350
e 308 309
e 308 310
e 308 311
e 308 312
e 308 314
e 308 346
e 308 347
e 308 349
e 308 350
e 309 310
e 309 311
e 309 312
e 309 313
e 309 314
e 309 315
e 309 317
e 309 318
e 309 320
e 309 351
e 309 352
e 309 353
e 309 354
e 309 355
e 309 356
e 310 311
e 310 312
e 310 313
e 310 314
e 310 316
e 310 351
e 310 352
e 310 353
e 310 354
e 310 355
e 310 356
e 311 312
e 311 313
e 311 314
e 311 315
e 311 317
e 311 318
e 311 320
e 311 351
e 311 352
e 311 353
e 311 354
e 311 355
e 311 356
e 312 313
e 312 314
e 312 315
e 312 317
e 312 318
e 312 320
e 312 351
e 312 352
e 312 353
e 312 354
e 312 355
e 312 356
e 313 314
e 313 315
e 313 317
e 313 318
e 313 319
e 313 320
e 313 351
e 313 352
e 313 353
e 313 354
e 313 355
e 313 356
e 314 315
e 314 316
e 314 317
e 314 318
e 314 320
e 314 351
e 314 352
e 314 353
e 314 354
e 314 355
e 314 356
e 315 316
e 315 317
e 315 318
e 315 319
e 315 320
e 315 321
e 315 323
e 315 324
e 315 326
e 315 357
e 315 358
e 315 359
e 315 360
e 315 361
e 315 362
e 316 317
e 316 318
e 316 319
e 316 320
e 316 322
e 316 357
e 316 358
e 316 359
e 316 360
e 316 361
e 316 362
e 317 318
e 317 319
e 317 320
e 317 321
e 317 323
e 317 324
e 317 326
e 317 357
e 317 358
e 317 359
e 317 360
e 317 361
e 317 362
e 318 319
e 318 320
e 318 321
e 318 323
e 318 324
e 318 326
e 318 357
e 318 358
e 318 359
e 318 360
e 318 361
e 318 362
e 319 320
e 319 321
e 319 323
e 319 324
e 319 325
e 319 326
e 319 357
e 319 358
e 319 359
e 319 360
e 319 361
e 319 362
e 320 321
e 320 322
e 320 323
e 320 324
e 320 326
e 320 357
e 320 358
e 320 359
e 320 360
e 320 361
e 320 362
e 321 322
e 321 323
e 321 324
e 321 325
e 321 326
e 321 327
e 321 329
e 321 330
e 321 332
e 321 363
e 321 364
e 321 365
e 321 366
e 321 367
e 321 368
e 322 323
e 322 324
e 322 325
e 322 326
e 322 328
e 322 363
e 322 364
e 322 365
e 322 366
e 322 367
e 322 368
e 323 324
e 323 325
e 323 326
e 323 327
e 323 329
e 323 330
e 323 332
e 323 363
e 323 364
e 323 365
e 323 366
e 323 367
e 323 368
e 324 325
e 324 326
e 324 327
e 324 328
e 324 329
e 324 330
e 324 332
e 324 363
e 324 364
e 324 365
e 324 366
e 324 367
e 324 368
e 325 326
e 325 327
e 325 329
e 325 330
e 325 331
e 325 332
e 325 363
e 325 364
e 325 365
e 325 366
e 325 367
e 325 368
e 326 327
e 326 328
e 326 329
e 326 330
e 326 332
e 326 363
e 326 364
e 326 365
e 326 366
e 326 367
e 326 368
e 327 328
e 327 329
e 327 330
e 327 331
e 327 332
e 327 369
e 327 370
e 327 371
e 327 372
e 327 373
e 327 374
e 328 329
e 328 330
e 328 331
e 328 332
e 328 369
e 328 370
e 328 371
e 328 372
e 328 373
e 328 374
e 329 330
e 329 331
e 329 332
e 329 369
e 329 370
e 329 371
e 329 372
e 329 373
e 329 374
e 330 331
e 330 332
e 330 369
e 330 370
e 330 371
e 330 372
e 330 373
e 330 374
e 331 332
e 331 369
e 331 370
e 331 371
e 331 372
e 331 373
e 331 374
e 332 369
e 332 370
e 332 371
e 332 372
e 332 373
e 332 374
e 339 340
e 339 341
e 339 342
e 339 343
e 339 344
e 339 345
e 339 347
e 339 348
e 339 350
e 339 381
e 339 382
e 339 383
e 339 384
e 339 385
e 339 386
e 340 341
e 340 342
e 340 343
e 340 344
e 340 346
e 340 381
e 340 382
e 340 383
e 340 384
e 340 385
e 340 386
e 341 342
e 341 343
e 341 344
e 341 345
e 341 347
e 341 348
e 341 350
e 341 381
e 341 382
e 341 383
e 341 384
e 341 385
e 341 386
e 342 343
e 342 344
e 342 345
e 342 346
e 342 347
e 342 348
e 342 350
e 342 381
e 342 382
e 342 383
e 342 384
e 342 385
e 342 386
e 343 344
e 343 345
e 343 347
e 343 348
e 343 349
e 343 350
e 343 381
e 343 382
e 343 383
e 343 384
e 343 385
e 343 386
e 344 345
e 344 346
e 344 347
e 344 348
e 344 350
e 344 381
e 344 382
e 344 383
e 344 384
e 344 385
e 344 386
e 345 346
e 345 347
e 345 348
e 345 349
e 345 350
e 345 351
e 345 353
e 345 354
e 345 356
e 345 387
e 345 388
e 345 389
e 345 390
e 345 391
e 345 392
e 346 347
e 346 348
e 346 349
e 346 350
e 346 352
e 346 387
e 346 388
e 346 389
e 346 390
e 346 391
e 346 392
e 347 348
e 347 349
e 347 350
e 347 351
e 347 353
e 347 354
e 347 356
e 347 387
e 347 388
e 347 389
e 347 390
e 347 391
e 347 392
e 348 349
e 348 350
e 348 351
e 348 353
e 348 354
e 348 356
e 348 387
e 348 388
e 348 389
e 348 390
e 348 391
e 348 392
e 349 350
e 349 351
e 349 353
e 349 354
e 349 355
e 349 356
e 349 387
e 349 388
e 349 389
e 349 390
e 349 391
e 349 392
e 350 351
e 350 352
e 350 353
e 350 354
e 350 356
e 350 387
e 350 388
e 350 389
e 350 390
e 350 391
e 350 392
e 351 352
e 351 353
e 351 354
e 351 355
e 351 356
e 351 357
e 351 359
e 351 360
e 351 362
e 351 393
e 351 394
e 351 395
e 351 396
e 351 397
e 351 398
e 352 353
e 352 354
e 352 355
e 352 356
e 352 358
e 352 393
e 352 394
e 352 395
e 352 396
e 352 397
e 352 398
e 353 354
e 353 355
e 353 356
e 353 357
e 353 359
e 353 360
e 353 362
e 353 393
e 353 394
e 353 395
e 353 396
e 353 397
e 353 398
e 354 355
e 354 356
e 354 357
e 354 358
e 354 359
e 354 360
e 354 362
e 354 393
e 354 394
e 354 395
e 354 396
e 354 397
e 354 398
e 355 356
e 355 357
e 355 359
e 355 360
e 355 361
e 355 362
e 355 393
e 355 394
e 355 395
e 355 396
e 355 397
e 355 398
e 356 357
e 356 358
e 356 359
e 356 360
e 356 362
e 356 393
e 356 394
e 356 395
e 356 396
e 356 397
e 356 398
e 357 358
e 357 359
e 357 360
e 357 361
e 357 362
e 357 363
e 357 365
e 357 366
e 357 368
e 357 399
e 357 400
e 357 401
e 357 402
e 357 403
e 357 404
e 358 359
e 358 360
e 358 361
e 358 362
e 358 364
e 358 399
e 358 400
e 358 401
e 358 402
e 358 403
e 358 404
e 359 360
e 359 361
e 359 362
e 359 363
e 359 365
e 359 366
e 359 368
e 359 399
e 359 400
e 359 401
e 359 402
e 359 403
e 359 404
e 360 361
e 360 362
e 360 363
e 360 364
e 360 365
e 360 366
e 360 368
e 360 399
e 360 400
e 360 401
e 360 402
e 360 403
e 360 404
e 361 362
e 361 363
e 361 365
e 361 366
e 361 367
e 361 368
e 361 399
e 361 400
e 361 401
e 361 402
e 361 403
e 361 404
e 362 363
e 362 364
e 362 365
e 362 366
e 362 368
e 362 399
e 362 400
e 362 401
e 362 402
e 362 403
e 362 404
e 363 364
e 363 365
e 363 366
e 363 367
e 363 368
e 363 369
e 363 371
e 363 372
e 363 374
e 363 405
e 363 406
e 363 407
e 363 408
e 363 409
e 363 410
e 364 365
e 364 366
e 364 367
e 364 368
e 364 370
e 364 405
e 364 406
e 364 407
e 364 408
e 364 409
e 364 410
e 365 366
e 365 367
e 365 368
e 365 369
e 365 371
e 365 372
e 365 374
e 365 405
e 365 406
e 365 407
e 365 408
e 365 409
e 365 410
e 366 367
e 366 368
e 366 369
e 366 370
e 366 371
e 366 372
e 366 374
e 366 405
e 366 406
e 366 407
e 366 408
e 366 409
e 366 410
e 367 368
e 367 369
e 367 371
e 367 372
e 367 373
e 367 374
e 367 405
e 367 406
e 367 407
e 367 408
e 367 409
e 367 410
e 368 369
e 368 370
e 368 371
e 368 372
e 368 374
e 368 405
e 368 406
e 368 407
e 368 408
e 368 409
e 368 410
e 369 370
e 369 371
e 369 372
e 369 373
e 369 374
e 369 411
e 369 412
e 369 413
e 369 414
e 369 415
e 369 416
e 370 371
e 370 372
e 370 373
e 370 374
e 370 411
e 370 412
e 370 413
e 370 414
e 370 415
e 370 416
e 371 372
e 371 373
e 371 374
e 371 411
e 371 412
e 371 413
e 371 414
e 371 415
e 371 416
e 372 373
e 372 374
e 372 411
e 372 412
e 372 413
e 372 414
e 372 415
e 372 416
e 373 374
e 373 411
e 373 412
e 373 413
e 373 414
e 373 415
e 373 416
e 374 411
e 374 412
e 374 413
e 374 414
e 374 415
e 374 416
e 381 382
e 381 383
e 381 384
e 381 385
e 381 386
e 381 387
e 381 389
e 381 390
e 381 392
e 382 383
e 382 384
e 382 385
e 382 386
e 382 388
e 383 384
e 383 385
e 383 386
e 383 387
e 383 389
e 383 390
e 383 392
e 384 385
e 384 386
e 384 387
e 384 388
e 384 389
e 384 390
e 384 392
e 385 386
e 385 387
e 385 389
e 385 390
e 385 391
e 385 392
e 386 387
e 386 388
e 386 389
e 386 390
e 386 392
e 387 388
e 387 389
e 387 390
e 387 391
e 387 392
e 387 393
e 387 395
e 387 396
e 387 398
e 388 389
e 388 390
e 388 391
e 388 392
e 388 394
e 389 390
e 389 391
e 389 392
e 389 393
e 389 395
e 389 396
e 389 398
e 390 391
e 390 392
e 390 393
e 390 395
e 390 396
e 390 398
e 391 392
e 391 393
e 391 395
e 391 396
e 391 397
e 391 398
e 392 393
e 392 394
e 392 395
e 392 396
e 392 398
e 393 394
e 393 395
e 393 396
e 393 397
e 393 398
e 393 399
e 393 401
e 393 402
e 393 404
e 394 395
e 394 396
e 394 397
e 394 398
e 394 400
e 395 396
e 395 397
e 395 398
e 395 399
e 395 401
e 395 402
e 395 404
e 396 397
e 396 398
e 396 399
e 396 401
e 396 402
e 396 404
e 397 398
e 397 399
e 397 401
e 397 402
e 397 403
e 397 404
e 398 399
e 398 400
e 398 401
e 398 402
e 398 404
e 399 400
e 399 401
e 399 402
e 399 403
e 399 404
e 399 405
e 399 407
e 399 408
e 399 410
e 400 401
e 400 402
e 400 403
e 400 404
e 400 406
e 401 403
e 401 404
e 401 405
e 401 407
e 401 408
e 401 410
e 402 403
e 402 404
e 402 405
e 402 407
e 402 408
e 402 410
e 403 404
e 403 405
e 403 407
e 403 408
e 403 409
e 403 410
e 404 405
e 404 406
e 404 407
e 404 408
e 404 410
e 405 406
e 405 407
e 405 408
e 405 409
e 405 410
e 405 411
e 405 413
e 405 414
e 405 416
e 406 407
e 406 408
e 406 409
e 406 410
e 406 412
e 407 408
e 407 409
e 407 410
e 407 411
e 407 413
e 407 414
e 407 416
e 408 409
e 408 410
e 408 411
e 408 412
e 408 413
e 408 414
e 408 416
e 409 410
e 409 411
e 409 413
e 409 414
e 409 415
e 409 416
e 410 411
e 410 412
e 410 413
e 410 414
e 410 416
e 411 412
e 411 413
e 411 414
e 411 415
e 411 416
e 412 413
e 412 414
e 412 415
e 412 416
e 413 414
e 413 415
e 413 416
e 414 415
e 414 416
e 415 416
